language ESSENCE' 1.0

letting design_FunctionND be [[0, 0, 0, 0, 0, 0, 0; int(1..7)], [3, 3, 3, 5, 5, 7, 9; int(1..7)]; int(1..2)]
$ Visualisation for design_FunctionND
$ 0 0 0 0 0 0 0
$ 3 3 3 5 5 7 9

letting printings_Function1D be [0, 123; int(1..2)]
